16 32
1 2 4
1 5 2
2 3 1
2 6 5
3 4 1
3 7 3
4 8 5
5 6 5
5 9 3
6 7 3
6 10 1
7 8 2
7 11 4
8 12 4
9 10 1
9 13 1
10 11 1
10 14 5
11 12 4
11 15 3
12 16 5
13 14 5
14 15 5
15 16 1
1 13 1
2 14 4
3 15 1
4 16 5
1 4 4
5 8 2
9 12 1
13 16 3
